4 100 2080
9 9 6 11 7 12 8 6 6 6
3 1 4 2
9 3 9
8
5 9 1 6
2 4
0 40.0 50.0 0.0 0.0 0 240
2 25.0 85.0 10.0 20.0 49 191 65 0 0 0 0 0 1 0 0 0 0
3 22.0 75.0 10.0 30.0 30 168 19 0 0 0 0 0 1 0 0 0 0
4 22.0 85.0 10.0 10.0 95 152 95 0 0 0 0 0 1 0 0 0 0
5 20.0 80.0 10.0 40.0 69 193 81 0 0 0 0 0 1 0 0 0 0
6 20.0 85.0 10.0 20.0 40 189 20 1 0 0 0 0 0 0 0 1 0
7 18.0 75.0 10.0 20.0 60 159 3 0 1 1 0 1 0 0 0 0 0
8 15.0 75.0 10.0 20.0 54 133 59 0 0 1 1 0 1 0 0 0 0
9 15.0 80.0 10.0 10.0 67 144 48 0 0 0 0 1 0 0 0 0 0
10 10.0 35.0 10.0 20.0 57 154 34 0 0 1 1 0 0 0 0 1 1
11 10.0 40.0 10.0 30.0 106 161 52 0 0 0 0 0 1 0 0 0 0
12 8.0 40.0 10.0 40.0 33 152 47 1 1 0 0 0 1 1 0 0 0
13 8.0 45.0 10.0 20.0 32 148 42 0 0 1 0 0 1 0 0 0 0
14 5.0 35.0 10.0 10.0 53 191 44 0 0 0 0 0 0 0 0 0 1
15 5.0 45.0 10.0 10.0 35 194 94 1 0 0 0 0 0 0 1 0 0
16 2.0 40.0 10.0 20.0 39 163 74 0 0 0 1 0 0 1 0 0 0
17 0.0 40.0 10.0 20.0 41 141 11 0 0 0 0 0 1 1 0 0 0
18 0.0 45.0 10.0 20.0 51 189 57 0 0 0 0 0 1 0 0 0 0
19 44.0 5.0 10.0 20.0 73 130 46 0 0 0 1 0 0 0 0 0 0
20 42.0 10.0 10.0 40.0 40 148 77 0 0 0 1 0 0 1 0 0 1
21 42.0 15.0 10.0 10.0 94 179 98 0 0 0 0 0 1 0 0 0 0
22 40.0 5.0 10.0 10.0 45 161 17 0 0 0 0 0 1 0 0 0 0
23 40.0 15.0 10.0 40.0 64 149 26 0 0 0 1 0 0 0 1 0 0
24 38.0 5.0 10.0 30.0 45 164 3 1 0 0 1 0 0 1 0 0 0
25 38.0 15.0 10.0 10.0 51 194 4 0 0 1 0 1 1 0 0 1 0
26 35.0 5.0 10.0 20.0 45 183 74 1 0 0 0 0 1 0 1 0 0
27 95.0 30.0 10.0 30.0 90 169 55 0 0 0 0 0 0 0 0 1 0
28 95.0 35.0 10.0 20.0 57 172 30 0 1 1 1 0 1 0 0 0 0
29 92.0 30.0 10.0 10.0 55 174 55 1 0 0 0 0 0 0 0 0 0
30 90.0 35.0 10.0 10.0 52 174 29 1 1 0 0 0 0 0 0 0 0
31 88.0 30.0 10.0 10.0 52 147 95 0 0 0 0 0 0 1 0 0 0
32 88.0 35.0 10.0 20.0 50 172 5 0 0 0 0 1 0 0 0 0 0
33 87.0 30.0 10.0 10.0 61 178 82 0 1 0 0 0 0 1 1 1 0
34 85.0 25.0 10.0 10.0 51 178 50 1 0 0 0 0 0 0 0 0 0
35 85.0 35.0 10.0 30.0 83 168 66 0 0 1 0 0 0 0 0 0 0
36 67.0 85.0 10.0 20.0 57 185 9 1 0 0 0 0 0 0 0 1 0
37 65.0 85.0 10.0 40.0 43 186 13 1 0 0 1 0 0 0 0 0 0
38 65.0 82.0 10.0 10.0 95 182 98 0 1 0 1 0 1 0 0 0 0
39 62.0 80.0 10.0 30.0 38 141 27 0 0 0 0 0 1 0 0 0 0
40 60.0 80.0 10.0 10.0 36 193 71 0 0 0 0 0 1 0 0 0 0
41 60.0 85.0 10.0 30.0 61 138 65 0 0 0 1 0 0 0 0 1 0
42 58.0 75.0 10.0 20.0 49 164 42 0 0 0 0 0 1 0 0 0 0
43 55.0 80.0 10.0 10.0 33 180 13 0 1 0 0 0 0 0 0 1 0
44 55.0 85.0 10.0 20.0 100 185 32 0 0 0 1 0 1 1 0 0 0
45 55.0 82.0 10.0 10.0 35 142 42 0 0 0 0 1 0 0 0 0 0
46 20.0 82.0 10.0 10.0 37 192 16 0 0 0 0 1 0 1 0 0 0
47 18.0 80.0 10.0 10.0 71 184 75 0 0 0 0 1 1 0 0 0 0
48 2.0 45.0 10.0 10.0 38 191 76 0 0 0 0 0 1 0 0 0 0
49 42.0 5.0 10.0 10.0 50 184 9 0 0 1 1 0 0 0 0 0 0
50 42.0 12.0 10.0 10.0 99 138 75 0 0 0 0 0 1 1 0 0 1
51 72.0 35.0 10.0 30.0 83 178 14 1 0 1 1 0 0 0 1 0 1
52 55.0 20.0 10.0 19.0 45 150 13 0 1 0 0 0 0 0 0 0 1
53 25.0 30.0 10.0 3.0 25 150 89 1 0 0 0 0 0 0 0 0 0
54 20.0 50.0 10.0 5.0 68 143 77 1 0 1 0 0 1 0 0 1 0
55 55.0 60.0 10.0 16.0 107 200 65 0 0 0 0 1 1 0 0 0 0
56 30.0 60.0 10.0 16.0 95 214 87 0 0 0 1 0 1 0 0 0 0
57 50.0 35.0 10.0 19.0 91 198 62 0 0 0 0 1 1 0 1 0 0
58 30.0 25.0 10.0 23.0 56 165 89 1 1 0 0 0 1 0 0 0 0
59 15.0 10.0 10.0 20.0 51 182 27 0 0 1 1 0 0 0 0 1 0
60 10.0 20.0 10.0 19.0 42 187 17 0 1 0 0 1 0 0 0 0 0
61 15.0 60.0 10.0 17.0 62 203 17 0 0 0 0 0 1 0 0 0 0
62 45.0 65.0 10.0 9.0 37 124 87 1 0 0 0 1 0 0 0 0 0
63 65.0 35.0 10.0 3.0 29 168 2 0 0 0 0 0 1 0 1 0 0
64 65.0 20.0 10.0 6.0 39 190 23 0 0 0 1 0 0 0 0 0 0
65 45.0 30.0 10.0 17.0 20 139 59 0 0 0 0 0 0 0 0 0 1
66 35.0 40.0 10.0 16.0 11 150 95 0 0 1 0 0 1 0 0 0 0
67 41.0 37.0 10.0 16.0 97 198 63 0 1 0 0 1 0 0 0 0 0
68 64.0 42.0 10.0 9.0 31 138 79 0 0 0 0 0 0 1 1 0 0
69 40.0 60.0 10.0 21.0 101 216 37 0 0 0 0 0 1 0 0 0 0
70 31.0 52.0 10.0 27.0 9 139 29 0 0 0 0 0 1 0 0 0 0
71 35.0 69.0 10.0 23.0 30 210 63 1 0 0 0 0 0 0 0 0 0
72 65.0 55.0 10.0 14.0 30 129 63 0 0 0 0 0 0 0 0 0 1
73 63.0 65.0 10.0 8.0 27 202 45 0 0 1 0 0 0 0 0 0 0
74 2.0 60.0 10.0 5.0 46 137 40 0 1 0 0 0 0 0 0 0 0
75 20.0 20.0 10.0 8.0 71 193 69 1 0 1 0 0 0 1 0 0 0
76 5.0 5.0 10.0 16.0 57 165 97 0 0 0 0 0 0 0 0 1 0
77 60.0 12.0 10.0 31.0 48 131 72 0 0 0 0 0 1 0 0 0 0
78 23.0 3.0 10.0 7.0 49 180 34 0 0 0 0 1 1 0 1 0 0
79 8.0 56.0 10.0 27.0 47 162 45 0 0 0 0 0 0 0 0 0 1
80 6.0 68.0 10.0 30.0 65 142 51 0 0 0 0 0 1 0 0 0 0
81 47.0 47.0 10.0 13.0 93 222 99 0 1 0 1 0 0 0 1 0 0
82 49.0 58.0 10.0 10.0 78 123 80 0 0 0 1 0 0 1 0 0 1
83 27.0 43.0 10.0 9.0 14 140 9 0 0 0 0 1 0 0 0 0 0
84 37.0 31.0 10.0 14.0 19 172 2 0 1 0 0 1 1 1 0 0 0
85 57.0 29.0 10.0 18.0 73 148 71 0 0 0 0 0 0 0 1 1 1
86 63.0 23.0 10.0 2.0 59 144 84 0 1 0 0 0 0 0 0 1 0
87 21.0 24.0 10.0 28.0 63 140 47 0 1 0 0 0 0 0 1 0 1
88 12.0 24.0 10.0 13.0 91 118 33 0 0 0 0 0 1 0 0 0 0
89 24.0 58.0 10.0 19.0 27 136 88 0 0 0 0 0 0 0 0 1 0
90 67.0 5.0 10.0 25.0 52 177 87 1 0 0 0 0 0 0 0 1 1
91 37.0 47.0 10.0 6.0 53 148 48 0 0 0 0 0 0 0 1 1 1
92 49.0 42.0 10.0 13.0 89 217 34 0 0 0 1 1 0 1 0 0 0
93 53.0 43.0 10.0 14.0 14 177 95 0 0 1 0 0 1 0 0 0 0
94 61.0 52.0 10.0 3.0 50 208 18 0 0 0 1 0 0 0 1 0 0
95 57.0 48.0 10.0 23.0 76 143 48 1 0 0 0 0 0 1 0 1 0
96 56.0 37.0 10.0 6.0 20 159 16 0 1 0 0 0 0 0 0 0 0
97 55.0 54.0 10.0 26.0 105 188 62 0 0 1 0 0 0 1 0 0 0
98 4.0 18.0 10.0 35.0 104 165 40 0 0 0 1 0 0 0 0 0 0
99 26.0 52.0 10.0 9.0 14 136 26 0 0 0 0 0 1 0 0 0 0
100 26.0 35.0 10.0 15.0 42 141 33 0 1 0 0 0 1 0 0 0 0
101 31.0 67.0 10.0 3.0 43 210 65 1 1 0 0 0 1 0 0 0 0